12 24
1 9 445
1 10 198
1 11 277
1 12 160
2 5 226
2 6 242
2 7 302
2 11 57
3 4 154
3 6 406
3 8 270
4 6 448
4 8 422
5 6 141
5 7 310
5 11 281
6 8 409
6 11 298
7 11 309
8 9 463
9 12 531
10 11 304
10 12 146
11 12 391
